RT is False
Default write of storage_offers_DA.csv just to have a file (but constraint should be inactive)
Reading model...
...model read.
creating competitive generators file...
...competitive generators recorded.
Loading data...
.. day-ahead data with real-time VRE data read.
Compiling instance...
...instance created.
Creating Offer Mitigation (model will solve as dispatch if TRUE)...
NOTE: storage offers will not be mitigated
...storage offer mitigation file created
Converting model to MPEC...
...converted
NOTE: initial MIP solve with only storage competitive to get feasible solution
Solving...

Welcome to IBM(R) ILOG(R) CPLEX(R) Interactive Optimizer 12.9.0.0
  with Simplex, Mixed Integer & Barrier Optimizers
5725-A06 5725-A29 5724-Y48 5724-Y49 5724-Y54 5724-Y55 5655-Y21
Copyright IBM Corp. 1988, 2019.  All Rights Reserved.

Type 'help' for a list of available commands.
Type 'help' followed by a command name for more
information on commands.

CPLEX> Logfile 'cplex.log' closed.
Logfile 'C:\Users\llavin\Desktop\test919\logs\tmpctm3ybo9.cplex.log' open.
CPLEX> New value for parallel optimization mode: -1
CPLEX> New value for mixed integer optimality gap tolerance: 0.01
CPLEX> New value for integrality tolerance: 1e-09
CPLEX> New value for feasibility tolerance: 0.01
CPLEX> New value for deterministic time limit in ticks: 100000
CPLEX> Problem 'C:\Users\llavin\Desktop\test919\logs\tmp0z4eamlt.pyomo.lp' read.
Read time = 0.23 sec. (13.86 ticks)
CPLEX> Problem name         : C:\Users\llavin\Desktop\test919\logs\tmp0z4eamlt.pyomo.lp
Objective sense      : Maximize
Variables            :   53321  [Nneg: 1,  Box: 21806,  Free: 4416,
                                 Binary: 27098]
Objective nonzeros   :    8980
Linear constraints   :  122164  [Less: 40983,  Greater: 58612,  Equal: 22569]
  Nonzeros           :  288505
  RHS nonzeros       :   66982

Variables            : Min LB: -5000.000        Max UB: 1000000.       
Objective nonzeros   : Min   : 0.4000000        Max   : 832.9000       
Linear constraints   :
  Nonzeros           : Min   : 0.4000000        Max   : 1000000.       
  RHS nonzeros       : Min   : 0.4000000        Max   : 1000000.       
CPLEX> CPXPARAM_Parallel                                -1
CPXPARAM_Simplex_Tolerances_Feasibility          0.01
CPXPARAM_DetTimeLimit                            100000
CPXPARAM_MIP_Tolerances_MIPGap                   0.01
CPXPARAM_MIP_Tolerances_Integrality              1.0000000000000001e-09
Tried aggregator 3 times.
MIP Presolve eliminated 88125 rows and 18981 columns.
MIP Presolve added 3371 rows and 0 columns.
MIP Presolve modified 24514 coefficients.
Aggregator did 12844 substitutions.
Reduced MIP has 24566 rows, 20940 columns, and 68779 nonzeros.
Reduced MIP has 8277 binaries, 0 generals, 0 SOSs, and 0 indicators.
Presolve time = 0.30 sec. (173.99 ticks)
Probing fixed 428 vars, tightened 2910 bounds.
Probing time = 1.25 sec. (913.72 ticks)
Tried aggregator 2 times.
MIP Presolve eliminated 957 rows and 857 columns.
MIP Presolve modified 2190 coefficients.
Aggregator did 59 substitutions.
Reduced MIP has 23550 rows, 20024 columns, and 65826 nonzeros.
Reduced MIP has 7849 binaries, 0 generals, 0 SOSs, and 0 indicators.
Presolve time = 0.11 sec. (67.55 ticks)
Probing time = 0.05 sec. (15.90 ticks)
Clique table members: 6296.
MIP emphasis: balance optimality and feasibility.
MIP search method: dynamic search.
Parallel mode: opportunistic, using up to 32 threads.
Root relaxation solution time = 0.41 sec. (520.43 ticks)

        Nodes                                         Cuts/
   Node  Left     Objective  IInf  Best Integer    Best Bound    ItCnt     Gap

      0     0        0.0000   719                      0.0000     6411         
*     0+    0                            0.0000        0.0000             0.00%
      0     0        cutoff              0.0000        0.0000     6411    0.00%
Elapsed time = 2.98 sec. (2134.94 ticks, tree = 0.01 MB, solutions = 1)

Root node processing (before b&c):
  Real time             =    3.00 sec. (2136.86 ticks)
Parallel b&c, 32 threads:
  Real time             =    0.00 sec. (0.00 ticks)
  Sync time (average)   =    0.00 sec.
  Wait time (average)   =    0.00 sec.
                          ------------
Total (root+branch&cut) =    3.00 sec. (2136.86 ticks)

Solution pool: 1 solution saved.

MIP - Integer optimal solution:  Objective =  6.1463651946e-09
Solution time =    3.03 sec.  Iterations = 6411  Nodes = 0
Deterministic time = 2137.01 ticks  (705.05 ticks/sec)

CPLEX> Incumbent solution written to file 'C:\Users\llavin\Desktop\test919\logs\tmpv2pfegza.cplex.sol'.
CPLEX> NOTE: no warmstart specified for MIP iteration, default behavior is true
NOTE: resolving with all competitive generators using storage-only solution to warmstart
Solving...

Welcome to IBM(R) ILOG(R) CPLEX(R) Interactive Optimizer 12.9.0.0
  with Simplex, Mixed Integer & Barrier Optimizers
5725-A06 5725-A29 5724-Y48 5724-Y49 5724-Y54 5724-Y55 5655-Y21
Copyright IBM Corp. 1988, 2019.  All Rights Reserved.

Type 'help' for a list of available commands.
Type 'help' followed by a command name for more
information on commands.

CPLEX> Logfile 'cplex.log' closed.
Logfile 'C:\Users\llavin\Desktop\test919\logs\tmps1p10tw7.cplex.log' open.
CPLEX> New value for parallel optimization mode: -1
CPLEX> New value for mixed integer optimality gap tolerance: 0.01
CPLEX> New value for integrality tolerance: 1e-09
CPLEX> New value for feasibility tolerance: 0.01
CPLEX> New value for deterministic time limit in ticks: 100000
CPLEX> Problem 'C:\Users\llavin\Desktop\test919\logs\tmphk1i_abe.pyomo.lp' read.
Read time = 0.22 sec. (13.88 ticks)
CPLEX> MIP start file 'C:\Users\llavin\Desktop\test919\logs\tmpw6yf4v0y.cplex.mst' read.
CPLEX> Problem name         : C:\Users\llavin\Desktop\test919\logs\tmphk1i_abe.pyomo.lp
Objective sense      : Maximize
Variables            :   54041  [Nneg: 1,  Box: 22526,  Free: 4416,
                                 Binary: 27098]
Objective nonzeros   :    9676
Linear constraints   :  122164  [Less: 40983,  Greater: 58612,  Equal: 22569]
  Nonzeros           :  288505
  RHS nonzeros       :   66982

Variables            : Min LB: -5000.000        Max UB: 1000000.       
Objective nonzeros   : Min   : 0.4000000        Max   : 784.4750       
Linear constraints   :
  Nonzeros           : Min   : 0.4000000        Max   : 1000000.       
  RHS nonzeros       : Min   : 0.4000000        Max   : 1000000.       
CPLEX> CPXPARAM_Parallel                                -1
CPXPARAM_Simplex_Tolerances_Feasibility          0.01
CPXPARAM_DetTimeLimit                            100000
CPXPARAM_MIP_Tolerances_MIPGap                   0.01
CPXPARAM_MIP_Tolerances_Integrality              1.0000000000000001e-09
Warning:  No solution found from 1 MIP starts.
Retaining values of one MIP start for possible repair.
Tried aggregator 3 times.
MIP Presolve eliminated 88125 rows and 19701 columns.
MIP Presolve added 3371 rows and 0 columns.
MIP Presolve modified 24514 coefficients.
Aggregator did 12844 substitutions.
Reduced MIP has 24566 rows, 20940 columns, and 68779 nonzeros.
Reduced MIP has 8277 binaries, 0 generals, 0 SOSs, and 0 indicators.
Presolve time = 0.28 sec. (174.36 ticks)
Probing fixed 428 vars, tightened 2910 bounds.
Probing time = 1.25 sec. (913.72 ticks)
Tried aggregator 2 times.
MIP Presolve eliminated 957 rows and 857 columns.
MIP Presolve modified 2190 coefficients.
Aggregator did 59 substitutions.
Reduced MIP has 23550 rows, 20024 columns, and 65826 nonzeros.
Reduced MIP has 7849 binaries, 0 generals, 0 SOSs, and 0 indicators.
Presolve time = 0.11 sec. (67.55 ticks)
Probing time = 0.05 sec. (15.90 ticks)
Clique table members: 6296.
MIP emphasis: balance optimality and feasibility.
MIP search method: dynamic search.
Parallel mode: opportunistic, using up to 32 threads.
Root relaxation solution time = 0.33 sec. (266.35 ticks)

        Nodes                                         Cuts/
   Node  Left     Objective  IInf  Best Integer    Best Bound    ItCnt     Gap

      0     0    96245.6073  1801                  96245.6073     6613         
      0     0    92941.7548   586                   Cuts: 744     6972         
      0     0    92348.7573   488                   Cuts: 426     7111         
      0     0    92290.8720   430                   Cuts: 261     7232         
      0     0    92277.3712   387                   Cuts: 182     7312         
      0     0    92276.4771   369                   Cuts: 117     7331         
      0     0    92263.5112   366                    Cuts: 84     7343         
      0     0    92259.2188   358                    Cuts: 58     7351         
      0     0    92259.2188   358                    Cuts: 46     7356         
      0     0    90919.6627   351                    Cuts: 50     7388         
      0     0    90551.4148   351                    Cuts: 52     7406         
      0     0    90523.6645   354                    Cuts: 59     7421         
      0     0    87027.1279   359                    Cuts: 52     7453         
      0     0    86931.0152   358                    Cuts: 46     7461         
      0     0    86929.7865   359                    Cuts: 42     7463         
Repair heuristic found nothing.
      0     3    79176.6286   353                    Cuts: 18     7475         
Elapsed time = 12.22 sec. (7053.31 ticks, tree = 0.02 MB, solutions = 0)
    371    67    59691.7937   306                  68878.7129     9684         
    888   284    39746.2915   305                  68878.7129    19481         
   1552   653    22958.9873   281                  68878.7129    26587         
   2256   822    21592.9765   286                  68878.7129    32569         
   2930  1501    infeasible                        68878.7129    42916         
   3641  1826    13177.9066   212                  68878.7129    46257         
   4432  2415     9081.8783   213                  68878.7129    51296         
   5714  4155    -2951.1463   200                  68878.7129    57598         
   6757  3611   -23353.0796   248                  68878.7129    57426         
*  9627+ 5893                         7196.9239    68878.7129           857.06%
Elapsed time = 29.00 sec. (10001.53 ticks, tree = 48.50 MB, solutions = 2)
  11491  6255     9879.1414   138     7196.9239    68878.7129    67021  857.06%
  11492  7323        cutoff           7196.9239    40081.8576    83998  456.93%
  13229  1060    12509.0700    72     7196.9239    25382.7634    98294  252.69%
  15217  1551    10311.3395    25     7196.9239    25382.7634   102064  252.69%
  17666  3248    15492.6021    82     7196.9239    25382.7634   116787  252.69%
  18813  3026    13306.3115    30     7196.9239    25382.7634   114829  252.69%
  19168  2923        cutoff           7196.9239    25382.7634   114013  252.69%
  19321  3439        cutoff          11643.7490    25382.7634   134057  117.99%
  19601  3509    12030.2501    26    13312.9316    25258.9972   134717   89.73%
  20116  3885    12238.9252    25    13312.9316    25258.9972   139414   89.73%
Elapsed time = 63.80 sec. (23831.50 ticks, tree = 28.85 MB, solutions = 7)
  21005  3461        cutoff          13312.9316    24540.6860   133941   84.34%
  22225  3304    12271.6453    47    13312.9316    24540.6860   141856   84.34%
  23547  6342    15646.5878    87    13312.9316    24165.9701   210983   81.52%
  24934  3208    15917.3240    96    13312.9316    24165.9701   165302   81.52%
  27027  3042    14779.7810    98    13312.9316    24165.9701   162295   81.52%
  30348  3721    16473.2027    91    13312.9316    24165.9701   174218   81.52%
  33627  3576    15819.5197    73    13312.9316    24165.9701   168270   81.52%
  36783  7145    16625.9998    85    13312.9316    24165.9701   222465   81.52%
  39622  9140    15741.7782    88    13312.9316    24165.9701   241118   81.52%
  42277  9035        cutoff          13312.9316    24165.9701   240200   81.52%
Elapsed time = 105.70 sec. (33372.76 ticks, tree = 70.23 MB, solutions = 7)
  44635  9432        cutoff          13312.9316    24165.9701   246464   81.52%
  46712 10568    15534.4429   102    13312.9316    19464.6419   256271   46.21%
  48589 20493    15171.5461    98    13395.1762    16678.8120   340959   24.51%
  51044 12223    15124.1942    88    13395.1762    16678.8120   274443   24.51%
  53902 16786    14977.3587    92    13395.1762    16678.8120   313042   24.51%
  56970 19632        cutoff          13395.1762    16649.6612   335074   24.30%
  60206 17731        cutoff          13395.1762    16649.6612   321858   24.30%
  63617 16724    15075.3017    80    13395.1762    16649.6612   312592   24.30%
  67001 23689        cutoff          13395.1762    16630.8717   361217   24.16%
  70320 18705    14970.1341    86    13395.1762    16612.1564   328032   24.02%
Elapsed time = 391.26 sec. (42913.21 ticks, tree = 387.77 MB, solutions = 8)
  73701 17528    15067.4320    90    13395.1762    16490.2147   319155   23.11%
  76937 29195    14868.8240    89    13395.1762    16482.6823   397516   23.05%
  80194 28905    16117.7830    76    13395.1762    16482.6823   394845   23.05%
  83418 26136    14707.8952    89    13395.1762    16482.6823   377617   23.05%
  86696 21524    14970.0059    83    13395.1762    16482.6823   348457   23.05%
  89948 39876    15188.3240    85    13395.1762    16439.1662   481908   22.72%
  93286 32226    14575.7376    84    13395.1762    16439.1662   419646   22.72%
  96600 37429    15919.9599    84    13395.1762    16439.1662   462100   22.72%
  99833 29726    infeasible          13395.1762    16439.1662   401466   22.72%
 103030 41144    14755.5647    78    13395.1762    16439.1662   491598   22.72%
Elapsed time = 689.98 sec. (52452.92 ticks, tree = 2196.54 MB, solutions = 8)
Nodefile size = 146.51 MB (99.41 MB after compression)
 106136 42720    14893.8134    89    13395.1762    16439.1662   504731   22.72%
 109193 38006    14793.7639    65    13395.1762    16439.1662   467034   22.72%
 111935 38037    15815.9535    64    13395.1762    16231.2572   467557   21.17%
 113905 43903    14620.8321    93    13395.1762    16231.2572   516194   21.17%
 115530 43949        cutoff          13395.1762    16231.2572   516555   21.17%
 116982 44812    13700.2960    82    13395.1762    16231.2572   523602   21.17%
 118451 36997    14884.3991    71    13395.1762    16231.2572   456693   21.17%
 120236 44035    14557.3347    89    13395.1762    16231.2572   518017   21.17%
 121662 49670    14520.6269    93    13395.1762    16231.2572   562562   21.17%
 122370 50265    13603.8419    71    13395.1762    16231.2572   569459   21.17%
Elapsed time = 767.48 sec. (61996.49 ticks, tree = 2243.59 MB, solutions = 8)
Nodefile size = 194.15 MB (130.42 MB after compression)
 122830 47525        cutoff          13395.1762    16231.2572   546426   21.17%
 123244 48910    14713.3948    81    13395.1762    16231.2572   555543   21.17%
 123668 48974    14716.6337    98    13395.1762    16231.2572   556043   21.17%
 124116 49066    14672.0419    82    13395.1762    16231.2572   556401   21.17%
 124366 15439    15279.0727    95    13395.1762    16231.2572   302082   21.17%
 124477 19270    15085.0119    82    13395.1762    16231.2572   332708   21.17%
 124606 19345    14858.3479    99    13395.1762    16231.2572   333277   21.17%
 124733 19421        cutoff          13395.1762    16231.2572   333726   21.17%
 124829 23108        cutoff          13395.1762    16231.2572   357712   21.17%
 124935 23161    15063.0115    96    13395.1762    16231.2572   358173   21.17%
Elapsed time = 767.89 sec. (71553.42 ticks, tree = 1168.66 MB, solutions = 8)
 125044 23211    16088.8037    81    13395.1762    16231.2572   358595   21.17%
 125155 23275    14804.5777    77    13395.1762    16231.2572   359061   21.17%
 125262 23327    15075.2466    94    13395.1762    16231.2572   359616   21.17%
 125373 32673    13827.1778    85    13395.1762    16231.2572   422739   21.17%
 125482 32727        cutoff          13395.1762    16231.2572   423174   21.17%
 125593 16858    13394.5185    26    13395.1762    16231.2572   314114   21.17%
 125702 32844    14853.1518    79    13395.1762    16231.2572   424156   21.17%
 125803 32878        cutoff          13395.1762    16231.2572   424554   21.17%
 125993 32902    15887.4022    84    13395.1762    16231.2572   424971   21.17%
 126228 42154    13682.3663    93    13395.1762    16231.2572   499833   21.17%
Elapsed time = 767.89 sec. (81135.80 ticks, tree = 2200.60 MB, solutions = 8)
Nodefile size = 150.59 MB (101.95 MB after compression)
 126449 21023    15416.4072   102    13395.1762    16231.2572   344847   21.17%
 126693 42287    14958.0598    91    13395.1762    16231.2572   500875   21.17%
 126915 42337    15816.0689    75    13395.1762    16231.2572   501379   21.17%
 127038 26785    16164.1359    86    13395.1762    16231.2572   381318   21.17%
 127143 27756        cutoff          13395.1762    16231.2572   388287   21.17%
 127243 33566    16185.6655    86    13395.1762    16231.2572   430539   21.17%
 127340 34390    13978.3557    96    13395.1762    16231.2572   437488   21.17%
 127437 35122        cutoff          13395.1762    16231.2572   442707   21.17%
 127547 37421        cutoff          13395.1762    16231.2572   462122   21.17%
 127669 38790    14852.4312    88    13395.1762    16231.2572   473786   21.17%
Elapsed time = 767.89 sec. (90713.43 ticks, tree = 2186.39 MB, solutions = 8)
Nodefile size = 135.92 MB (92.46 MB after compression)
 127786 40532        cutoff          13395.1762    16231.2572   486175   21.17%
 127918 41421    15279.0727   102    13395.1762    16231.2572   493609   21.17%
 128026 42239        cutoff          13395.1762    16231.2572   500204   21.17%
 128133 45020    14825.9309    81    13395.1762    16231.2572   525917   21.17%
 128204 47685    15966.5645    76    13395.1762    16231.2572   547986   21.17%
 128206 47687    15966.5645    83    13395.1762    16231.2572   547996   21.17%
 128222 47701        cutoff          13395.1762    16231.2572   548025   21.17%

GUB cover cuts applied:  1
Clique cuts applied:  11
Cover cuts applied:  8
Implied bound cuts applied:  46
Flow cuts applied:  371
Mixed integer rounding cuts applied:  41
Gomory fractional cuts applied:  68

Root node processing (before b&c):
  Real time             =   10.47 sec. (7018.91 ticks)
Parallel b&c, 32 threads:
  Real time             =  760.39 sec. (92995.57 ticks)
  Sync time (average)   =    6.87 sec.
  Wait time (average)   =    0.26 sec.
                          ------------
Total (root+branch&cut) =  770.86 sec. (100014.48 ticks)

Solution pool: 8 solutions saved.

MIP - Deterministic time limit exceeded, integer feasible:  Objective =  1.3395176192e+04
Current MIP best bound =  1.6110305933e+04 (gap = 2715.13, 20.27%)
Solution time =  770.88 sec.  Iterations = 648035  Nodes = 128331 (59155)
Deterministic time = 100014.64 ticks  (129.74 ticks/sec)

CPLEX> Incumbent solution written to file 'C:\Users\llavin\Desktop\test919\logs\tmprmlueyvn.cplex.sol'.
CPLEX> Exporting results... 
